NAME : morphed22-2-28
COMMENT : Generated using the function morphInstances from the R-package netgen (Bossek,2015) - Number of clusters: 2 Alpha: 0.5
TYPE : TSP
DIMENSION : 22
EDGE_WEIGHT_TYPE : EUC_2D
NODE_COORD_SECTION
1 2.3039325376 65.6292238823
2 5.2778271015 21.5971677752
3 46.8929759217 54.4200581965
4 75.9885111811 50.0014060325
5 7.2226374084 26.1299953222
6 45.4451814201 27.7821079687
7 3.4418839131 10.1484940037
8 53.696149147 15.3193583972
9 56.1557608084 73.4300591839
10 82.2431567251 49.0258858002
11 69.9097741714 84.2886425728
12 65.4160168827 76.2440850235
13 56.6606869512 42.4747945339
14 78.4215795652 77.4271836945
15 53.0261590441 55.363283035
16 23.3220917478 37.3041928802
17 24.0987154588 55.5876056897
18 61.7574379695 46.7930838604
19 78.510190623 47.7625262694
20 25.14072079 40.6183793758
21 16.7461434651 28.6243349837
22 18.7211830704 11.2396901598
EOF
